Writing problem data to 'bin-packin.lp'...
184 lines were written
GLPK Simplex Optimizer, v4.52
10 rows, 111 columns, 270 non-zeros
      0: obj =   0.000000000e+00  infeas =  9.100e+01 (0)
*    10: obj =   3.230714286e+01  infeas =  0.000e+00 (0)
*    13: obj =   3.163333333e+01  infeas =  0.000e+00 (0)
OPTIMAL LP SOLUTION FOUND
GLPK Integer Optimizer, v4.52
10 rows, 111 columns, 270 non-zeros
111 integer variables, none of which are binary
Integer optimization begins...
+    13: mip =     not found yet >=              -inf        (1; 0)
Solution found by heuristic: 32
+    17: mip =   3.200000000e+01 >=     tree is empty   0.0% (0; 5)
INTEGER OPTIMAL SOLUTION FOUND
il faut 32 bin
motif0 ( 2 0 0 0 0 0 0 0 0 0 ) : 6 ; motif1 ( 1 1 0 0 0 0 0 0 0 0 ) : 0 ; motif2 ( 1 0 1 0 0 0 0 0 0 0 ) : 0 ; motif3 ( 1 0 0 1 0 0 0 0 0 0 ) : 0 ; motif4 ( 1 0 0 0 1 0 0 0 0 0 ) : 0 ; motif5 ( 1 0 0 0 0 1 0 0 0 0 ) : 0 ; motif6 ( 1 0 0 0 0 0 1 0 0 1 ) : 1 ; motif7 ( 1 0 0 0 0 0 0 1 1 0 ) : 0 ; motif8 ( 1 0 0 0 0 0 0 1 0 1 ) : 0 ; motif9 ( 1 0 0 0 0 0 0 0 2 0 ) : 0 ; motif10 ( 1 0 0 0 0 0 0 0 1 1 ) : -1 ; motif11 ( 1 0 0 0 0 0 0 0 0 2 ) : 0 ; motif12 ( 0 2 0 0 0 0 0 0 0 0 ) : 0 ; motif13 ( 0 1 1 0 0 0 0 0 0 0 ) : 0 ; motif14 ( 0 1 0 1 0 0 0 0 0 0 ) : 0 ; motif15 ( 0 1 0 0 1 0 0 0 0 0 ) : 0 ; motif16 ( 0 1 0 0 0 1 0 0 0 1 ) : 0 ; motif17 ( 0 1 0 0 0 0 1 0 1 0 ) : 0 ; motif18 ( 0 1 0 0 0 0 1 0 0 1 ) : 0 ; motif19 ( 0 1 0 0 0 0 0 2 0 0 ) : 0 ; motif20 ( 0 1 0 0 0 0 0 1 1 0 ) : 0 ; motif21 ( 0 1 0 0 0 0 0 1 0 1 ) : 0 ; motif22 ( 0 1 0 0 0 0 0 0 2 0 ) : 1 ; motif23 ( 0 1 0 0 0 0 0 0 1 1 ) : 0 ; motif24 ( 0 1 0 0 0 0 0 0 0 2 ) : 0 ; motif25 ( 0 0 2 0 0 0 0 0 0 0 ) : 0 ; motif26 ( 0 0 1 1 0 0 0 0 0 0 ) : 0 ; motif27 ( 0 0 1 0 1 0 0 0 0 1 ) : 0 ; motif28 ( 0 0 1 0 0 1 0 0 1 0 ) : 0 ; motif29 ( 0 0 1 0 0 1 0 0 0 1 ) : 0 ; motif30 ( 0 0 1 0 0 0 1 1 0 0 ) : 0 ; motif31 ( 0 0 1 0 0 0 1 0 1 0 ) : 0 ; motif32 ( 0 0 1 0 0 0 1 0 0 1 ) : 0 ; motif33 ( 0 0 1 0 0 0 0 2 0 0 ) : 0 ; motif34 ( 0 0 1 0 0 0 0 1 1 0 ) : 0 ; motif35 ( 0 0 1 0 0 0 0 1 0 1 ) : 0 ; motif36 ( 0 0 1 0 0 0 0 0 2 0 ) : 0 ; motif37 ( 0 0 1 0 0 0 0 0 1 1 ) : 0 ; motif38 ( 0 0 1 0 0 0 0 0 0 2 ) : 0 ; motif39 ( 0 0 0 2 0 0 0 0 0 1 ) : 0 ; motif40 ( 0 0 0 1 1 0 0 0 1 0 ) : 0 ; motif41 ( 0 0 0 1 1 0 0 0 0 1 ) : 0 ; motif42 ( 0 0 0 1 0 1 0 1 0 0 ) : 0 ; motif43 ( 0 0 0 1 0 1 0 0 1 0 ) : 0 ; motif44 ( 0 0 0 1 0 1 0 0 0 1 ) : 0 ; motif45 ( 0 0 0 1 0 0 2 0 0 0 ) : 0 ; motif46 ( 0 0 0 1 0 0 1 1 0 0 ) : 0 ; motif47 ( 0 0 0 1 0 0 1 0 1 0 ) : 0 ; motif48 ( 0 0 0 1 0 0 1 0 0 1 ) : -10 ; motif49 ( 0 0 0 1 0 0 0 2 0 0 ) : -12 ; motif50 ( 0 0 0 1 0 0 0 1 1 0 ) : -6 ; motif51 ( 0 0 0 1 0 0 0 1 0 1 ) : -7 ; motif52 ( 0 0 0 1 0 0 0 0 2 0 ) : -5 ; motif53 ( 0 0 0 1 0 0 0 0 1 1 ) : -8 ; motif54 ( 0 0 0 1 0 0 0 0 0 3 ) : -4 ; motif55 ( 0 0 0 0 2 0 0 1 0 0 ) : -12 ; motif56 ( 0 0 0 0 2 0 0 0 1 0 ) : -12 ; motif57 ( 0 0 0 0 2 0 0 0 0 1 ) : -1 ; motif58 ( 0 0 0 0 1 1 1 0 0 0 ) : -10 ; motif59 ( 0 0 0 0 1 1 0 1 0 0 ) : 0 ; motif60 ( 0 0 0 0 1 1 0 0 1 0 ) : 0 ; motif61 ( 0 0 0 0 1 1 0 0 0 1 ) : 0 ; motif62 ( 0 0 0 0 1 0 2 0 0 0 ) : 0 ; motif63 ( 0 0 0 0 1 0 1 1 0 0 ) : 0 ; motif64 ( 0 0 0 0 1 0 1 0 1 0 ) : 11 ; motif65 ( 0 0 0 0 1 0 1 0 0 1 ) : 0 ; motif66 ( 0 0 0 0 1 0 0 2 0 0 ) : 0 ; motif67 ( 0 0 0 0 1 0 0 1 1 0 ) : 0 ; motif68 ( 0 0 0 0 1 0 0 1 0 1 ) : 0 ; motif69 ( 0 0 0 0 1 0 0 0 2 0 ) : 0 ; motif70 ( 0 0 0 0 1 0 0 0 1 2 ) : 0 ; motif71 ( 0 0 0 0 1 0 0 0 0 3 ) : 0 ; motif72 ( 0 0 0 0 0 3 0 0 0 0 ) : 0 ; motif73 ( 0 0 0 0 0 2 1 0 0 0 ) : 0 ; motif74 ( 0 0 0 0 0 2 0 1 0 0 ) : 0 ; motif75 ( 0 0 0 0 0 2 0 0 1 0 ) : 0 ; motif76 ( 0 0 0 0 0 2 0 0 0 1 ) : 0 ; motif77 ( 0 0 0 0 0 1 2 0 0 0 ) : 0 ; motif78 ( 0 0 0 0 0 1 1 1 0 0 ) : 0 ; motif79 ( 0 0 0 0 0 1 1 0 1 0 ) : 0 ; motif80 ( 0 0 0 0 0 1 1 0 0 1 ) : -2147483648 ; motif81 ( 0 0 0 0 0 1 0 2 0 0 ) : 0 ; motif82 ( 0 0 0 0 0 1 0 1 1 0 ) : 0 ; motif83 ( 0 0 0 0 0 1 0 1 0 2 ) : 0 ; motif84 ( 0 0 0 0 0 1 0 0 2 1 ) : 0 ; motif85 ( 0 0 0 0 0 1 0 0 1 2 ) : 0 ; motif86 ( 0 0 0 0 0 1 0 0 0 3 ) : 0 ; motif87 ( 0 0 0 0 0 0 3 0 0 0 ) : 0 ; motif88 ( 0 0 0 0 0 0 2 1 0 0 ) : 0 ; motif89 ( 0 0 0 0 0 0 2 0 1 0 ) : 0 ; motif90 ( 0 0 0 0 0 0 2 0 0 2 ) : 0 ; motif91 ( 0 0 0 0 0 0 1 2 0 0 ) : 0 ; motif92 ( 0 0 0 0 0 0 1 1 1 1 ) : 0 ; motif93 ( 0 0 0 0 0 0 1 1 0 2 ) : 0 ; motif94 ( 0 0 0 0 0 0 1 0 3 0 ) : 0 ; motif95 ( 0 0 0 0 0 0 1 0 2 1 ) : 0 ; motif96 ( 0 0 0 0 0 0 1 0 1 2 ) : 0 ; motif97 ( 0 0 0 0 0 0 1 0 0 3 ) : 0 ; motif98 ( 0 0 0 0 0 0 0 3 0 1 ) : 0 ; motif99 ( 0 0 0 0 0 0 0 2 2 0 ) : 0 ; motif100 ( 0 0 0 0 0 0 0 2 1 1 ) : 0 ; motif101 ( 0 0 0 0 0 0 0 2 0 2 ) : 0 ; motif102 ( 0 0 0 0 0 0 0 1 3 0 ) : 0 ; motif103 ( 0 0 0 0 0 0 0 1 2 1 ) : 0 ; motif104 ( 0 0 0 0 0 0 0 1 1 2 ) : 0 ; motif105 ( 0 0 0 0 0 0 0 1 0 3 ) : 0 ; motif106 ( 0 0 0 0 0 0 0 0 4 0 ) : 0 ; motif107 ( 0 0 0 0 0 0 0 0 3 1 ) : 0 ; motif108 ( 0 0 0 0 0 0 0 0 2 2 ) : 0 ; motif109 ( 0 0 0 0 0 0 0 0 1 3 ) : 0 ; motif110 ( 0 0 0 0 0 0 0 0 0 5 ) : 0 ; 
Temps : 0.006000
